ssat_solver_solve2
#level: 2
Abc_NtkNodeNum(s->pNtk): 110  , BDD limit: 10240
Build BDD success
level 1: 5 element
Exist
level 0: 5 element
Random
c ssat solving in ABC
#var: 10
s SATISFIABLE
  > Upper bound = 9.375000e-01
  > Lower bound = 9.375000e-01
FINISHED CPU 0.04 MEM 47044 MAXMEM 47044 STALE 1 MAXMEM_RSS 4640
<time name="ALL">40</time>
real 1.65
user 0.36
sys 0.76
